NAME          ClpDefau
ROWS
 N  OBJROW
 L  R0000000
 L  R0000001
 L  R0000002
 L  R0000003
 L  R0000004
 L  R0000005
 L  R0000006
 L  R0000007
 L  R0000008
 L  R0000009
 L  R0000010
 L  R0000011
 L  R0000012
 L  R0000013
 L  R0000014
 L  R0000015
 E  R0000016
 E  R0000017
 E  R0000018
 E  R0000019
 E  R0000020
 E  R0000021
 E  R0000022
 E  R0000023
 E  R0000024
 E  R0000025
 E  R0000026
 E  R0000027
 E  R0000028
 E  R0000029
 E  R0000030
 E  R0000031
 L  R0000032
 L  R0000033
 L  R0000034
 L  R0000035
 L  R0000036
 L  R0000037
 L  R0000038
 L  R0000039
 L  R0000040
 L  R0000041
 L  R0000042
 L  R0000043
 L  R0000044
 L  R0000045
 L  R0000046
 L  R0000047
 L  R0000048
 L  R0000049
COLUMNS
    C0000000  OBJROW    1.             R0000000  1.          
    C0000000  R0000016  1.          
    C0000001  OBJROW    1.             R0000000  1.          
    C0000001  R0000020  1.          
    C0000002  OBJROW    1.             R0000000  1.          
    C0000002  R0000024  1.          
    C0000003  OBJROW    1.             R0000002  1.          
    C0000003  R0000016  1.          
    C0000004  OBJROW    1.             R0000002  1.          
    C0000004  R0000020  1.          
    C0000005  OBJROW    1.             R0000005  1.          
    C0000005  R0000018  1.          
    C0000006  R0000016   -1.           R0000018  1.          
    C0000006  R0000032  1.          
    C0000007  R0000016   -1.           R0000022  1.          
    C0000007  R0000033  1.          
    C0000008  R0000016   -1.           R0000028  1.          
    C0000008  R0000034  1.          
    C0000009  R0000018   -1.           R0000026  1.          
    C0000009  R0000035  1.          
    C0000010  R0000018   -1.           R0000030  1.          
    C0000010  R0000036  1.          
    C0000011  R0000018  1.             R0000020   -1.        
    C0000011  R0000037  1.          
    C0000012  R0000020   -1.           R0000022  1.          
    C0000012  R0000038  1.          
    C0000013  R0000020   -1.           R0000030  1.          
    C0000013  R0000039  1.          
    C0000014  R0000022   -1.           R0000028  1.          
    C0000014  R0000040  1.          
    C0000015  R0000022   -1.           R0000030  1.          
    C0000015  R0000041  1.          
    C0000016  R0000010  1.             R0000012  1.          
    C0000016  R0000022   -1.        
    C0000017  R0000018  1.             R0000024   -1.        
    C0000017  R0000042  1.          
    C0000018  R0000024   -1.           R0000026  1.          
    C0000018  R0000043  1.          
    C0000019  R0000024   -1.           R0000028  1.          
    C0000019  R0000044  1.          
    C0000020  R0000026   -1.           R0000028  1.          
    C0000020  R0000045  1.          
    C0000021  R0000026   -1.           R0000030  1.          
    C0000021  R0000046  1.          
    C0000022  R0000014  1.             R0000026   -1.        
    C0000023  R0000020  1.             R0000028   -1.        
    C0000023  R0000047  1.          
    C0000024  R0000028   -1.           R0000030  1.          
    C0000024  R0000048  1.          
    C0000025  R0000006  1.             R0000008  1.          
    C0000025  R0000028   -1.        
    C0000026  R0000014  1.             R0000028   -1.        
    C0000027  R0000022  1.             R0000030   -1.        
    C0000027  R0000049  1.          
    C0000028  R0000014  1.             R0000030   -1.        
    C0000029  R0000010  1.             R0000012  1.          
    C0000029  R0000030   -1.        
    C0000030  OBJROW    1.             R0000001  1.          
    C0000030  R0000017  1.          
    C0000031  OBJROW    1.             R0000001  1.          
    C0000031  R0000021  1.          
    C0000032  OBJROW    1.             R0000001  1.          
    C0000032  R0000025  1.          
    C0000033  OBJROW    1.             R0000003  1.          
    C0000033  R0000017  1.          
    C0000034  OBJROW    1.             R0000003  1.          
    C0000034  R0000021  1.          
    C0000035  OBJROW    1.             R0000004  1.          
    C0000035  R0000019  1.          
    C0000036  R0000017   -1.           R0000019  1.          
    C0000036  R0000032  1.          
    C0000037  R0000017   -1.           R0000023  1.          
    C0000037  R0000033  1.          
    C0000038  R0000017   -1.           R0000029  1.          
    C0000038  R0000034  1.          
    C0000039  R0000019   -1.           R0000027  1.          
    C0000039  R0000035  1.          
    C0000040  R0000019   -1.           R0000031  1.          
    C0000040  R0000036  1.          
    C0000041  R0000019  1.             R0000021   -1.        
    C0000041  R0000037  1.          
    C0000042  R0000021   -1.           R0000023  1.          
    C0000042  R0000038  1.          
    C0000043  R0000021   -1.           R0000031  1.          
    C0000043  R0000039  1.          
    C0000044  R0000023   -1.           R0000029  1.          
    C0000044  R0000040  1.          
    C0000045  R0000023   -1.           R0000031  1.          
    C0000045  R0000041  1.          
    C0000046  R0000011  1.             R0000013  1.          
    C0000046  R0000023   -1.        
    C0000047  R0000019  1.             R0000025   -1.        
    C0000047  R0000042  1.          
    C0000048  R0000025   -1.           R0000027  1.          
    C0000048  R0000043  1.          
    C0000049  R0000025   -1.           R0000029  1.          
    C0000049  R0000044  1.          
    C0000050  R0000027   -1.           R0000029  1.          
    C0000050  R0000045  1.          
    C0000051  R0000027   -1.           R0000031  1.          
    C0000051  R0000046  1.          
    C0000052  R0000015  1.             R0000027   -1.        
    C0000053  R0000021  1.             R0000029   -1.        
    C0000053  R0000047  1.          
    C0000054  R0000029   -1.           R0000031  1.          
    C0000054  R0000048  1.          
    C0000055  R0000007  1.             R0000009  1.          
    C0000055  R0000029   -1.        
    C0000056  R0000015  1.             R0000029   -1.        
    C0000057  R0000023  1.             R0000031   -1.        
    C0000057  R0000049  1.          
    C0000058  R0000015  1.             R0000031   -1.        
    C0000059  R0000011  1.             R0000013  1.          
    C0000059  R0000031   -1.        
RHS
    RHS       R0000000  56.            R0000001  100.        
    RHS       R0000002  165.           R0000004  93.         
    RHS       R0000006  2000.          R0000007  2000.       
    RHS       R0000008  2000.          R0000009  2000.       
    RHS       R0000010  2000.          R0000011  2000.       
    RHS       R0000012  2000.          R0000013  2000.       
    RHS       R0000015  2000.          R0000032  5.          
    RHS       R0000033  7.             R0000034  74.         
    RHS       R0000035  149.           R0000036  49.         
    RHS       R0000037  16.            R0000038  11.         
    RHS       R0000039  59.            R0000040  68.         
    RHS       R0000041  49.            R0000042  190.        
    RHS       R0000043  88.            R0000044  63.         
    RHS       R0000045  128.           R0000046  185.        
    RHS       R0000047  133.           R0000048  99.         
    RHS       R0000049  194.        
BOUNDS
 UI BOUND     C0000000         1e+30
 UI BOUND     C0000001         1e+30
 UI BOUND     C0000002         1e+30
 UI BOUND     C0000003         1e+30
 UI BOUND     C0000004         1e+30
 UI BOUND     C0000005         1e+30
 UI BOUND     C0000006         1e+30
 UI BOUND     C0000007         1e+30
 UI BOUND     C0000008         1e+30
 UI BOUND     C0000009         1e+30
 UI BOUND     C0000010         1e+30
 UI BOUND     C0000011         1e+30
 UI BOUND     C0000012         1e+30
 UI BOUND     C0000013         1e+30
 UI BOUND     C0000014         1e+30
 UI BOUND     C0000015         1e+30
 UI BOUND     C0000016         1e+30
 UI BOUND     C0000017         1e+30
 UI BOUND     C0000018         1e+30
 UI BOUND     C0000019         1e+30
 UI BOUND     C0000020         1e+30
 UI BOUND     C0000021         1e+30
 UI BOUND     C0000022         1e+30
 UI BOUND     C0000023         1e+30
 UI BOUND     C0000024         1e+30
 UI BOUND     C0000025         1e+30
 UI BOUND     C0000026         1e+30
 UI BOUND     C0000027         1e+30
 UI BOUND     C0000028         1e+30
 UI BOUND     C0000029         1e+30
 UI BOUND     C0000030         1e+30
 UI BOUND     C0000031         1e+30
 UI BOUND     C0000032         1e+30
 UI BOUND     C0000033         1e+30
 UI BOUND     C0000034         1e+30
 UI BOUND     C0000035         1e+30
 UI BOUND     C0000036         1e+30
 UI BOUND     C0000037         1e+30
 UI BOUND     C0000038         1e+30
 UI BOUND     C0000039         1e+30
 UI BOUND     C0000040         1e+30
 UI BOUND     C0000041         1e+30
 UI BOUND     C0000042         1e+30
 UI BOUND     C0000043         1e+30
 UI BOUND     C0000044         1e+30
 UI BOUND     C0000045         1e+30
 UI BOUND     C0000046         1e+30
 UI BOUND     C0000047         1e+30
 UI BOUND     C0000048         1e+30
 UI BOUND     C0000049         1e+30
 UI BOUND     C0000050         1e+30
 UI BOUND     C0000051         1e+30
 UI BOUND     C0000052         1e+30
 UI BOUND     C0000053         1e+30
 UI BOUND     C0000054         1e+30
 UI BOUND     C0000055         1e+30
 UI BOUND     C0000056         1e+30
 UI BOUND     C0000057         1e+30
 UI BOUND     C0000058         1e+30
 UI BOUND     C0000059         1e+30
ENDATA
